2696.6
25 25 25 25 25 25 25 25 25 20 25 25 55 68 25 76 76 92 25 25 68 68 68 25 76 25 25 25 25 68 92 76 25 92 92 25 68 68 68 92 92 68 25 25 25 92 76 64 25 25 25 68 68 76 25 68 25 68 55 25 25 25 68 25 25 76 68 25 25 25 25 25 25 25 25 25 68 92 81 25 25 92 92 68 25 92 25 25 68 25 68 25 68 25 25 25 68 92 68 25 
